treewidth/data/TaylorTwographDescendantSRG_3.gr
p tw 27 135
1 2
1 13
1 21
1 22
1 23
1 24
1 25
1 26
1 6
1 20
2 13
2 27
2 3
2 8
2 9
2 12
2 15
2 18
2 19
13 4
13 5
13 7
13 10
13 11
13 14
13 16
13 17
21 22
21 27
21 5
21 8
21 10
21 11
21 15
21 17
21 18
22 3
22 4
22 7
22 9
22 12
22 14
22 16
22 19
23 25
23 3
23 4
23 8
23 10
23 11
23 14
23 18
23 19
24 26
24 4
24 5
24 8
24 9
24 11
24 15
24 16
24 19
25 27
25 5
25 7
25 9
25 12
25 15
25 16
25 17
26 27
26 3
26 7
26 10
26 12
26 14
26 17
26 18
27 4
27 11
27 14
27 16
27 19
27 20
3 5
3 11
3 15
3 16
3 17
3 20
4 12
4 15
4 17
4 18
4 20
5 12
5 14
5 18
5 19
5 20
6 11
6 12
6 14
6 15
6 16
6 17
6 18
6 19
6 20
7 8
7 11
7 15
7 18
7 19
7 20
8 12
8 14
8 16
8 17
8 20
9 10
9 11
9 14
9 17
9 18
9 20
10 12
10 15
10 16
10 19
10 20
11 12
14 15
16 18
17 19
