treewidth/data/TaylorTwographDescendantSRG_3.td
c width = 17, time = 0.269676
s td 10 18 27
b 1 1 3 7 9 10 12 13 14 15 16 17 18 19 20 21 23 24 27
b 2 1 3 7 8 9 12 13 14 15 16 17 18 19 20 21 23 24 27
b 3 1 2 3 8 9 12 13 15 18 19 27
b 4 1 3 7 9 12 13 14 15 16 17 18 19 20 21 22 23 24 27
b 5 4 12 13 15 17 18 20 22 23 24 27
b 6 1 3 7 9 12 13 14 15 16 17 18 19 20 21 23 24 25 27
b 7 3 5 12 13 14 18 19 20 21 24 25
b 8 1 3 7 9 11 12 13 14 15 16 17 18 19 20 21 23 24 27
b 9 1 6 11 12 14 15 16 17 18 19 20
b 10 1 3 7 10 12 14 17 18 24 26 27
2 3
1 2
4 5
1 4
6 7
1 6
8 9
1 8
1 10
